COLUMNS

passenger_count
pickup_ID
dropoff_ID
request_time_sec
pickup_district
dropoff_district
LDuals
IDuals
vehicle_ID
pick_position
drop_position

REQUESTS_INFO
1      232       266       31044     266       266       90        90        231       1         2         
2      778       894       31037     131       291       111       111       779       1         2         
1      984       1068      31025     291       291       165       165       985       1         2         
1      940       1286      31050     291       129       0         0         0         0         0         
1      731       572       31050     131       131       0         0         0         0         0         
1      841       1079      31050     290       84        0         0         0         0         0         
3      1055      1034      31051     84        84        0         0         0         0         0         
3      1055      1034      31051     84        84        0         0         0         0         0         
1      645       31        31051     280       9         0         0         0         0         0         
1      549       289       31052     52        127       0         0         0         0         0         
1      840       909       31053     290       290       0         0         0         0         0         
4      679       745       31053     290       290       0         0         0         0         0         
1      351       530       31054     52        189       0         0         0         0         0         
1      434       557       31054     52        189       0         0         0         0         0         
1      629       627       31054     189       189       0         0         0         0         0         
1      948       805       31055     290       291       0         0         0         0         0         
1      710       574       31055     131       189       0         0         0         0         0         
3      1273      1305      31056     84        129       0         0         0         0         0         
2      940       858       31056     291       290       0         0         0         0         0         
3      940       858       31056     291       290       0         0         0         0         0         
2      863       411       31056     290       52        0         0         0         0         0         
1      550       816       31056     189       290       0         0         0         0         0         
3      1273      1305      31056     84        129       0         0         0         0         0         
2      466       556       31057     199       199       0         0         0         0         0         
3      1390      1073      31057     129       50        0         0         0         0         0         
2      948       720       31058     290       290       0         0         0         0         0         
3      948       720       31058     290       290       0         0         0         0         0         
1      925       813       31059     290       290       0         0         0         0         0         
3      897       134       31060     291       9         0         0         0         0         0         
3      897       134       31060     291       9         0         0         0         0         0         
1      389       653       31060     299       189       0         0         0         0         0         
2      926       696       31060     290       189       0         0         0         0         0         
1      1107      850       31060     291       291       0         0         0         0         0         
1      436       455       31061     100       52        0         0         0         0         0         
1      925       984       31061     290       291       0         0         0         0         0         
2      351       398       31061     52        168       0         0         0         0         0         
1      333       512       31062     119       199       0         0         0         0         0         
1      20        862       31062     98        290       0         0         0         0         0         
1      697       663       31062     189       131       0         0         0         0         0         
1      912       782       31062     291       291       0         0         0         0         0         
1      700       883       31063     290       290       0         0         0         0         0         
2      711       526       31064     131       52        0         0         0         0         0         
3      711       526       31064     131       52        0         0         0         0         0         
1      912       923       31064     291       290       0         0         0         0         0         
1      306       647       31064     299       280       0         0         0         0         0         
1      1132      1022      31064     291       291       0         0         0         0         0         
1      234       527       31064     87        52        0         0         0         0         0         
1      714       458       31065     131       52        0         0         0         0         0         
2      511       556       31065     199       199       0         0         0         0         0         
3      511       556       31065     199       199       0         0         0         0         0         
1      1022      1161      31066     291       84        0         0         0         0         0         
1      1087      903       31066     291       290       0         0         0         0         0         
1      480       480       31066     52        52        0         0         0         0         0         
1      632       829       31067     189       50        0         0         0         0         0         
1      731       527       31067     131       52        0         0         0         0         0         
1      374       531       31067     119       189       0         0         0         0         0         
1      216       693       31067     178       280       0         0         0         0         0         
1      314       811       31067     119       290       0         0         0         0         0         
2      694       1128      31068     189       291       0         0         0         0         0         
2      436       194       31068     100       207       0         0         0         0         0         
1      133       144       31069     9         54        0         0         0         0         0         
1      601       21        31069     189       98        0         0         0         0         0         
1      859       1208      31069     290       192       0         0         0         0         0         
1      958       1168      31069     291       291       0         0         0         0         0         
1      457       376       31069     52        168       0         0         0         0         0         
1      875       990       31069     291       290       0         0         0         0         0         
1      738       557       31070     189       189       0         0         0         0         0         
3      696       858       31070     189       290       0         0         0         0         0         
2      696       858       31070     189       290       0         0         0         0         0         
3      409       331       31071     52        127       0         0         0         0         0         
2      740       332       31071     50        87        0         0         0         0         0         
3      409       331       31071     52        127       0         0         0         0         0         
1      1021      350       31071     291       127       0         0         0         0         0         
1      1109      874       31072     291       291       0         0         0         0         0         
1      466       771       31072     199       290       0         0         0         0         0         
2      1157      1232      31072     129       129       0         0         0         0         0         
1      325       9         31072     299       98        0         0         0         0         0         
1      304       673       31073     299       189       0         0         0         0         0         
1      1044      1244      31074     291       192       0         0         0         0         0         
1      865       814       31074     290       290       0         0         0         0         0         
1      894       904       31074     291       290       0         0         0         0         0         
1      268       556       31074     299       199       0         0         0         0         0         
2      839       535       31075     290       189       0         0         0         0         0         
1      276       504       31075     87        52        0         0         0         0         0         
1      395       199       31075     100       178       0         0         0         0         0         
1      760       557       31075     291       189       0         0         0         0         0         
2      929       969       31075     290       290       0         0         0         0         0         
1      888       723       31076     290       290       0         0         0         0         0         
1      701       527       31077     290       52        0         0         0         0         0         
2      863       669       31077     290       280       0         0         0         0         0         
3      727       744       31078     290       290       0         0         0         0         0         
3      727       744       31078     290       290       0         0         0         0         0         
1      583       415       31078     189       100       0         0         0         0         0         
1      772       373       31078     290       119       0         0         0         0         0         
3      873       959       31078     291       291       0         0         0         0         0         
1      214       905       31079     207       290       0         0         0         0         0         
